p cnf 11 17 
c Factors encoded in variables 1-6 and 7-11
c Target number: 1537
c Factors: 53 x 29
-8 0
4 9 0
1 0
4 -3 9 0
-4 -9 0
-4 9 0
-2 0
10 0
5 0
-4 -3 -9 0
11 0
6 0
4 3 0
-3 9 0
7 0
4 3 9 0
3 -9 0
